\* Problem: Robot *\

Minimize
 obj: + 0 x_1 + 21 x_2 + 61 x_4 + 41 x_5 + 36 x_6 + 26 x_7 + 92 x_8
 + 4 x_9 + 17 x_10 + 21 x_11 + 0 x_12 + 62 x_13 + 62 x_14 + 20 x_15
 + 24 x_16 + 60 x_17 + 87 x_18 + 40 x_19 + 15 x_20 + 62 x_22 + 0 x_23
 + 63 x_24 + 21 x_25 + 62 x_26 + 53 x_27 + 38 x_28 + 47 x_29 + 92 x_30
 + 61 x_31 + 62 x_32 + 63 x_33 + 0 x_34 + 64 x_35 + 6 x_36 + 45 x_37
 + 90 x_38 + 51 x_39 + x_40 + 41 x_41 + 20 x_42 + 21 x_43 + 64 x_44
 + 0 x_45 + 54 x_46 + 50 x_47 + 5 x_48 + 41 x_49 + 90 x_50 + 36 x_51
 + 24 x_52 + 62 x_53 + 6 x_54 + 54 x_55 + 0 x_56 + 33 x_57 + 50 x_58
 + 78 x_59 + 32 x_60 + 26 x_61 + 60 x_62 + 53 x_63 + 45 x_64 + 50 x_65
 + 33 x_66 + 0 x_67 + 45 x_68 + 94 x_69 + 68 x_70 + 92 x_71 + 87 x_72
 + 38 x_73 + 90 x_74 + 5 x_75 + 50 x_76 + 45 x_77 + 0 x_78 + 53 x_79
 + 75 x_80 + 4 x_81 + 40 x_82 + 47 x_83 + 51 x_84 + 41 x_85 + 78 x_86
 + 94 x_87 + 53 x_88 + 0 x_89 + 63 x_90 + 17 x_91 + 15 x_92 + 92 x_93
 + x_94 + 90 x_95 + 32 x_96 + 68 x_97 + 75 x_98 + 63 x_99 + 0 x_100

Subject To
 r_1: + x_10 + x_9 + x_8 + x_7 + x_6 + x_5 + x_4 + x_3 + x_2 = 1
 r_2: + x_20 + x_19 + x_18 + x_17 + x_16 + x_15 + x_14 + x_13 + x_11 = 1
 r_3: + x_30 + x_29 + x_28 + x_27 + x_26 + x_25 + x_24 + x_22 + x_21 = 1
 r_4: + x_40 + x_39 + x_38 + x_37 + x_36 + x_35 + x_33 + x_32 + x_31 = 1
 r_5: + x_50 + x_49 + x_48 + x_47 + x_46 + x_44 + x_43 + x_42 + x_41 = 1
 r_6: + x_60 + x_59 + x_58 + x_57 + x_55 + x_54 + x_53 + x_52 + x_51 = 1
 r_7: + x_70 + x_69 + x_68 + x_66 + x_65 + x_64 + x_63 + x_62 + x_61 = 1
 r_8: + x_80 + x_79 + x_77 + x_76 + x_75 + x_74 + x_73 + x_72 + x_71 = 1
 r_9: + x_90 + x_88 + x_87 + x_86 + x_85 + x_84 + x_83 + x_82 + x_81 = 1
 r_10: + x_99 + x_98 + x_97 + x_96 + x_95 + x_94 + x_93 + x_92 + x_91
 = 1
 r_11: + x_91 + x_81 + x_71 + x_61 + x_51 + x_41 + x_31 + x_21 + x_11
 = 1
 r_12: + x_92 + x_82 + x_72 + x_62 + x_52 + x_42 + x_32 + x_22 + x_2 = 1
 r_13: + x_93 + x_83 + x_73 + x_63 + x_53 + x_43 + x_33 + x_13 + x_3 = 1
 r_14: + x_94 + x_84 + x_74 + x_64 + x_54 + x_44 + x_24 + x_14 + x_4 = 1
 r_15: + x_95 + x_85 + x_75 + x_65 + x_55 + x_35 + x_25 + x_15 + x_5 = 1
 r_16: + x_96 + x_86 + x_76 + x_66 + x_46 + x_36 + x_26 + x_16 + x_6 = 1
 r_17: + x_97 + x_87 + x_77 + x_57 + x_47 + x_37 + x_27 + x_17 + x_7 = 1
 r_18: + x_98 + x_88 + x_68 + x_58 + x_48 + x_38 + x_28 + x_18 + x_8 = 1
 r_19: + x_99 + x_79 + x_69 + x_59 + x_49 + x_39 + x_29 + x_19 + x_9 = 1
 r_20: + x_90 + x_80 + x_70 + x_60 + x_50 + x_40 + x_30 + x_20 + x_10
 = 1
 r_21: + x_21 + x_3 = 1
 r_22: + x_75 + x_48 = 1

Bounds
 0 <= x_1 <= 1
 0 <= x_2 <= 1
 0 <= x_3 <= 1
 0 <= x_4 <= 1
 0 <= x_5 <= 1
 0 <= x_6 <= 1
 0 <= x_7 <= 1
 0 <= x_8 <= 1
 0 <= x_9 <= 1
 0 <= x_10 <= 1
 0 <= x_11 <= 1
 0 <= x_12 <= 1
 0 <= x_13 <= 1
 0 <= x_14 <= 1
 0 <= x_15 <= 1
 0 <= x_16 <= 1
 0 <= x_17 <= 1
 0 <= x_18 <= 1
 0 <= x_19 <= 1
 0 <= x_20 <= 1
 0 <= x_21 <= 1
 0 <= x_22 <= 1
 0 <= x_23 <= 1
 0 <= x_24 <= 1
 0 <= x_25 <= 1
 0 <= x_26 <= 1
 0 <= x_27 <= 1
 0 <= x_28 <= 1
 0 <= x_29 <= 1
 0 <= x_30 <= 1
 0 <= x_31 <= 1
 0 <= x_32 <= 1
 0 <= x_33 <= 1
 0 <= x_34 <= 1
 0 <= x_35 <= 1
 0 <= x_36 <= 1
 0 <= x_37 <= 1
 0 <= x_38 <= 1
 0 <= x_39 <= 1
 0 <= x_40 <= 1
 0 <= x_41 <= 1
 0 <= x_42 <= 1
 0 <= x_43 <= 1
 0 <= x_44 <= 1
 0 <= x_45 <= 1
 0 <= x_46 <= 1
 0 <= x_47 <= 1
 0 <= x_48 <= 1
 0 <= x_49 <= 1
 0 <= x_50 <= 1
 0 <= x_51 <= 1
 0 <= x_52 <= 1
 0 <= x_53 <= 1
 0 <= x_54 <= 1
 0 <= x_55 <= 1
 0 <= x_56 <= 1
 0 <= x_57 <= 1
 0 <= x_58 <= 1
 0 <= x_59 <= 1
 0 <= x_60 <= 1
 0 <= x_61 <= 1
 0 <= x_62 <= 1
 0 <= x_63 <= 1
 0 <= x_64 <= 1
 0 <= x_65 <= 1
 0 <= x_66 <= 1
 0 <= x_67 <= 1
 0 <= x_68 <= 1
 0 <= x_69 <= 1
 0 <= x_70 <= 1
 0 <= x_71 <= 1
 0 <= x_72 <= 1
 0 <= x_73 <= 1
 0 <= x_74 <= 1
 0 <= x_75 <= 1
 0 <= x_76 <= 1
 0 <= x_77 <= 1
 0 <= x_78 <= 1
 0 <= x_79 <= 1
 0 <= x_80 <= 1
 0 <= x_81 <= 1
 0 <= x_82 <= 1
 0 <= x_83 <= 1
 0 <= x_84 <= 1
 0 <= x_85 <= 1
 0 <= x_86 <= 1
 0 <= x_87 <= 1
 0 <= x_88 <= 1
 0 <= x_89 <= 1
 0 <= x_90 <= 1
 0 <= x_91 <= 1
 0 <= x_92 <= 1
 0 <= x_93 <= 1
 0 <= x_94 <= 1
 0 <= x_95 <= 1
 0 <= x_96 <= 1
 0 <= x_97 <= 1
 0 <= x_98 <= 1
 0 <= x_99 <= 1
 0 <= x_100 <= 1

Generals
 x_1
 x_2
 x_3
 x_4
 x_5
 x_6
 x_7
 x_8
 x_9
 x_10
 x_11
 x_12
 x_13
 x_14
 x_15
 x_16
 x_17
 x_18
 x_19
 x_20
 x_21
 x_22
 x_23
 x_24
 x_25
 x_26
 x_27
 x_28
 x_29
 x_30
 x_31
 x_32
 x_33
 x_34
 x_35
 x_36
 x_37
 x_38
 x_39
 x_40
 x_41
 x_42
 x_43
 x_44
 x_45
 x_46
 x_47
 x_48
 x_49
 x_50
 x_51
 x_52
 x_53
 x_54
 x_55
 x_56
 x_57
 x_58
 x_59
 x_60
 x_61
 x_62
 x_63
 x_64
 x_65
 x_66
 x_67
 x_68
 x_69
 x_70
 x_71
 x_72
 x_73
 x_74
 x_75
 x_76
 x_77
 x_78
 x_79
 x_80
 x_81
 x_82
 x_83
 x_84
 x_85
 x_86
 x_87
 x_88
 x_89
 x_90
 x_91
 x_92
 x_93
 x_94
 x_95
 x_96
 x_97
 x_98
 x_99
 x_100

End
